c instance by G2
c solution = 101011000000110011100
c Known solution cost is 989 
p cnf 21 30
w 93 20 3 30 0 57 45 59 94 52 58 16 62 11 55 60 16 97 37 76 48
-3 10 6 0
16 17 -5 0
15 -21 -13 0
13 -17 8 0
8 -10 20 0
-13 -3 5 0
4 3 -6 0
16 -8 -17 0
-4 16 -5 0
15 -18 -2 0
1 13 -15 0
11 -6 3 0
8 18 12 0
13 -4 15 0
-8 -7 1 0
-3 -12 11 0
20 -15 -7 0
16 9 1 0
-3 19 -18 0
8 -9 16 0
-11 -3 -18 0
2 -7 16 0
-20 -13 -19 0
21 16 -10 0
2 6 -3 0
-13 -14 -11 0
3 21 13 0
10 12 -16 0
-15 -13 20 0
21 -3 14 0
